sifdecoder -A pc64.lnx.gfo -st   HIER133B

 Problem name: HIER133B

 Double precision version will be formed

 The objective function uses 2 linear groups
 
 There are 3549 linear equality constraints
 
 There are 177 variables bounded only from above 
 There are 2020 variables bounded from below and above 
 
 
 File successfully decoded
 CUTEST: tools (double precision version) compiled successfully
 CUTEst: ipopt (double precision version) compiled successfully

******************************************************************************
This program contains Ipopt, a library for large-scale nonlinear optimization.
 Ipopt is released as open source code under the Eclipse Public License (EPL).
         For more information visit http://projects.coin-or.org/Ipopt
******************************************************************************

This is Ipopt version trunk, running with linear solver ma57.

Number of nonzeros in equality constraint Jacobian...:    11661
Number of nonzeros in inequality constraint Jacobian.:        0
Number of nonzeros in Lagrangian Hessian.............:     2197

Exception of type: TOO_FEW_DOF in file "../../../../Ipopt/src/Interfaces/IpIpoptApplication.cpp" at line 937:
 Exception message: status != TOO_FEW_DEGREES_OF_FREEDOM evaluated false: Too few degrees of freedom (rethrown)!

EXIT: Problem has too few degrees of freedom.

************************ CUTEst statistics ************************


 Package used            :  IPOPT
 Problem                 :  HIER133B  
 # variables             =            2197
 # constraints           =            3549
 # objective functions   =        0.1000000E+01
 # objective gradients   =        0.1000000E+01
 # objective Hessians    =        0.1000000E+01
 # Hessian-vector prdct  =        0.0000000E+00
 # constraints functions =        0.2000000E+01
 # constraints gradients =        0.2000000E+01
 # constraints Hessians  =        0.1000000E+01
 Exit code               =             -10
 Final f                 =        0.0000000000000000D+00
 Bounds feasibility      =        9.7000000000000000D+01
 Set up time             =            0.27 seconds
 Solve time              =            0.11 seconds


******************************************************************

